
Gurobi 11.0.3 (linux64) logging started Sat Nov 23 07:46:05 2024

Set parameter LogFile to value "/home/yihong/Coding/OR_SUC/SUC_results_bigM100000_thread4/case24_ieee_rts_theta0.5_epsilon0.05_gurobi_seed1170000_num_gen100_N_WDR50_load_scaling_factor1_exact_T24quadra_cost.txt"
Set parameter TimeLimit to value 3600
Gurobi Optimizer version 11.0.3 build v11.0.3rc0 (linux64 - "Ubuntu 20.04.6 LTS")

CPU model: AMD EPYC 7532 32-Core Processor, instruction set [SSE2|AVX|AVX2]
Thread count: 64 physical cores, 128 logical processors, using up to 4 threads

Optimize a model with 51943 rows, 29861 columns and 712638 nonzeros
Model fingerprint: 0x6eb587b7
Model has 2400 quadratic constraints
Variable types: 27411 continuous, 2450 integer (2450 binary)
Coefficient statistics:
  Matrix range     [1e-04, 1e+05]
  QMatrix range    [2e-03, 8e-03]
  QLMatrix range   [8e-02, 6e+01]
  Objective range  [1e+00, 1e+00]
  Bounds range     [1e+00, 1e+00]
  RHS range        [1e+00, 1e+05]
Presolve removed 42078 rows and 12924 columns
Presolve time: 0.26s
Presolved: 9865 rows, 16937 columns, 62347 nonzeros
Presolved model has 2400 quadratic constraint(s)
Variable types: 14497 continuous, 2440 integer (2440 binary)

Root relaxation: objective 4.974624e+04, 7683 iterations, 0.18 seconds (0.26 work units)

    Nodes    |    Current Node    |     Objective Bounds      |     Work
 Expl Unexpl |  Obj  Depth IntInf | Incumbent    BestBd   Gap | It/Node Time

     0     0 49746.2431    0    3          - 49746.2431      -     -    0s
     0     0 338925.022    0  755          - 338925.022      -     -    0s
     0     0 365277.676    0  725          - 365277.676      -     -    1s
     0     0 645321.480    0  743          - 645321.480      -     -    1s
     0     0 645403.717    0  579          - 645403.717      -     -    1s
     0     0 646297.185    0  463          - 646297.185      -     -    1s
     0     0 646297.314    0  463          - 646297.314      -     -    1s
     0     0 646532.520    0  460          - 646532.520      -     -    1s
     0     0 646533.329    0  460          - 646533.329      -     -    1s
     0     2 646534.141    0  460          - 646534.141      -     -    2s
  1078  1259 646721.724   43  309          - 646540.383      -  22.6    5s
H 1364  1044                    647153.84369 646540.383  0.09%  23.4    5s
* 1364  1044             240    647153.84369 646540.383  0.09%  23.4    5s

Cutting planes:
  Gomory: 3
  Implied bound: 449
  MIR: 105
  Flow cover: 107
  PSD: 1

Explored 1408 nodes (54889 simplex iterations) in 6.20 seconds (8.05 work units)
Thread count was 4 (of 128 available processors)

Solution count 2: 647154 647154 

Optimal solution found (tolerance 1.00e-03)
Warning: max constraint violation (2.3293e-07) exceeds tolerance
Best objective 6.471538436961e+05, best bound 6.465403831616e+05, gap 0.0948%
